c Lingeling SAT Solver
c 
c Version ala b02aa1a04343558c4252b5f4a723be021964f652
c 
c Copyright (C) 2010-2012 Armin Biere JKU Linz Austria.
c All rights reserved.
c 
c released Sat Oct 13 14:05:26 CEST 2012
c compiled Sat Feb 16 02:48:12 EST 2013
c 
c gcc (Debian 4.4.5-8) 4.4.5
c -Wall -O3 -DNLGLOG -DNDEBUG -DNCHKSOL -DNLGLPICOSAT 
c Linux greencar2 2.6.32-5-amd64 x86_64
c 
c reading input file p51.cnf
c no embedded options
c found 'p cnf 245250 758045' header
c read 245250 variables, 758045 clauses, 1577394 literals in 0.0 seconds
c
c feature vars 245250
c feature lits.total 1577394
c feature lits.pos 840803
c feature lits.neg 736591
c feature clauses.total 758045
c feature clauses.unit 91440
c feature clauses.bin 534461
c feature clauses.trn 130744
c feature clauses.lrg 1400
c feature cog.val.min 1
c feature cog.val.avg 109271
c feature cog.val.max 235441
c feature cog.var.min 1
c feature cog.var.avg 122626
c feature cog.var.max 245249
c
c
c --abstime=0
c --acts=2
c --actavgmax=120
c --actstdmin=20
c --actstdmax=80
c --agile=23
c --bias=2
c --block=1
c --blkrtc=0
c --blkclslim=2000
c --blkocclim=2000
c --blkmaxeff=2147483647
c --blkmineff=10000000
c --blkreleff=20
c --card=0
c --cce=3
c --ccemaxeff=100000000
c --ccemineff=5000000
c --ccereleff=3
c --check=0
c --cgrclsr=1
c --cgrmaxority=20
c --cgrmaxeff=8000000
c --cgrmineff=200000
c --cgreleff=1
c --cgrexteq=1
c --cgrextand=1
c --cgrextunits=1
c --cgrextite=1
c --cgrextxor=1
c --cliff=1
c --cliffreleff=8
c --cliffmineff=10000000
c --cliffmaxeff=100000000
c --compact=0
c --decompose=1
c --defragint=10000000
c --defragfree=50
c --elim=1
c --elmrtc=0
c --elmblk=1
c --elmclslim=1000
c --elmocclim=1000
c --elmaxeff=100000000
c --elmineff=5000000
c --elmreleff=10
c --sleeponabort=0
c --exitonabort=0
c --flipping=1
c --flipint=2
c --flipdur=50
c --fliptop=1
c --force=0
c --gauss=1
c --gaussextrall=1
c --gaussmaxor=20
c --gaussexptrn=1
c --gaussmaxeff=50000000
c --gaussmineff=2000000
c --gaussreleff=2
c --gluescale=2
c --gluekeep=0
c --inprocessing=1
c --cintinc=10000
c --irrlim=20
c --lift=1
c --lftmaxeff=20000000
c --lftmineff=500000
c --lftreleff=6
c --lhbr=1
c --lkhd=1
c --clim=-1
c --mocint=1000
c --move=2
c --log=-1
c --otfs=1
c --phase=0
c --phaseneginit=0
c --plain=0
c --probe=1
c --prbasicmaxeff=100000000
c --prbasicmineff=1000000
c --prbasicreleff=10
c --prbasic=1
c --prbasicroundlim=9
c --queuemergelim=10000
c --queuefactor=833
c --queueinc=20
c --rmincpen=4
c --seed=0
c --smallirr=90
c --smallve=1
c --smallvevars=12
c --randec=1
c --randecint=1000
c --redfixed=0
c --redlbound=0
c --redlexpfac=10
c --redldoutfac=0
c --redloutinc=10000
c --redlinit=1000
c --redlinc=1000
c --redinoutinc=100
c --redlmininc=10
c --redlmaxinc=200
c --redlminrel=10
c --redlmaxrel=300
c --redlminabs=500
c --redlmaxabs=1000000
c --reduce=1
c --restart=2
c --restartint=5
c --rstinoutinc=110
c --simplify=1
c --simpdelay=100
c --simpen=4
c --sizepen=1000000
c --sizemaxpen=3
c --sortlits=0
c --syncint=111111
c --termint=122222
c --ternres=1
c --ternresrtc=0
c --trnrmineff=4000000
c --trnrmaxeff=40000000
c --trnreleff=10
c --transred=1
c --trdmineff=100000
c --trdmaxeff=2000000
c --trdreleff=10
c --unhide=1
c --unhdextstamp=1
c --unhdhbr=0
c --unhdmaxeff=20000000
c --unhdmineff=1000000
c --unhdreleff=4
c --unhdlnpr=3
c --unhdroundlim=5
c --verbose=1
c --witness=1
c [limits] no conflict limit
c [limits] simplification delayed by 100 to 100 conflicts
c 
c  seconds         irredundant          redundant clauses agility   height
c          variables clauses conflicts large binary ternary    glue         MB
c 
c *    0.0  134744   562337         0       0      0     0  67  0.0   0.0   43
c [cut-width] 186828, max 292678, min4 120776 at 75%, min10 38141 at 89%
c [decision-order] bias 1, old 1
c [queue-schedule-all-variables]
c s    0.0  134744   562337         0       0      0     0  67  0.0   0.0   43
c [simplification-1] limit hit at 100 conflicts
c [simplification-1] simplification penalty of 4
c [ternres-1] limit 4000000 with penalty 0 = 0 + 0
c [ternres-1] all 134744 free variables schedulable
c [ternres-1] 0 ternary resolvents (0 bin, 0 trn)
c [ternres-1] 33968 variables remain 25% (100776 retained)
c [gauss-1] limit 2000000 penalty 0 = 0 + 0
c [gauss-1] extracted 167628 xors of average arity 2.0
c [gauss-1] connected 335258 occurrences of 113026 variables (average 3.0)
c [gauss-1] limit 2000000 penalty 0 = 0 + 0
c d    1.5   61806   278615       100     100      0     0  64  6.3 354.0   22
c [gauss-1] exported 0 unary, 1 binary and 0 ternary equations
c G    1.5   61806   278615       100     100      0     0  64  6.3 354.0   22
c [basicprobe-1] limit 1000000 penalty 0 = 0 + 0
c [basicprobe-1-0] 4704 probes remain 8% after last round
c [basicprobe-1-0] removed 0 variables, found 2268 hbrs
c p    1.8   61806   278615       100     100   2268     0  64  6.3 354.0   26
c [cgrclsr-1] limit 200000 penalty 0 = 0 + 0
c [cgrclsr-1] all 61806 free variables schedulable
c [cgrclsr-1] fully completed congruence closure
c [lift-1] limit 500000 with penalty 0 = 0 + 0
c [lift-1] using 61806 probes 100%
c [lift-1] 61770 variables remain 100% (35 retained)
c [lift-1] removed 1 variables
c ^    2.2   61805   278614       100     100   2329     0  64  6.3 354.0   22
c [cliff-1] limit of 10000000 steps penalty 0 = 0 + 0
c [cliff-1] failed 0, lifted 0
c [unhide-1] limit 1000000 with penalty 0 = 0 + 0
c [unhide-1-1] 0 units, 5 failed, 22060 tauts, 0 hbrs, 78 literals
c u    3.0   61801   256554       100     100  15278     0  64  6.3 354.0   26
c [transred-1] limit 100000 with penalty 0 = 0 + 0
c t    3.0   61801   256553       100     100  15275     0  64  6.3 354.0   26
c [block-1] scheduling all variables this time
c [block-1] scheduled 61801 variables 100%
c [block-1] limit of 10000000 steps penalty 0 = 0 + 0
c [block-1] fully completed blocked clause elimination
c [block-1] transition to [ all 0 rem 0 ] state
c [block-1] eliminated 5174 blocked clauses
c k    3.3   61801   251360       100     100  15275  5174  64  6.3 354.0   22
c [cce-1] scheduling all variables this time
c [cce-1] limit of 10000000 steps penalty 0 = 0 + 0
c [cce-1] incomplete covered clause elimination 55156 not tried 89%
c [cce-1] transition to [ all 1 rem 1 ] state
c [cce-1] eliminated 139 covered clauses
c E    4.1   61797   251221       100     100  23731  5173  64  6.3 354.0   22
c [elim-1] scheduling all variables this time
c [elim-1] scheduled 61797 variables 100%
c [elim-1] limit of 5000000 steps penalty 0 = 0 + 0
c [elim-1] incomplete variable elimination 46246 not tried 75%
c [elim-1] transition to [ all 1 rem 1 ] state
c [elim-1] eliminated 7103 = 11% variables out of 61797
c e    5.6   54694   246903       100      52   8930   698  64  6.3 354.0   21
c [phase-1] phase bias: 1596 positive 13%, 10566 negative 87%
c [simplification-1] removed 80050 variables 59%
c [simplification-1] limit increments divided by 30
c [simplification-1] arithmetic increase of conflict limit interval by 333
c [simplification-1] new irredundant limit 2466201
c [simplification-1] new conflict limit 433
c [simplification-1] simplification penalty reduced to 3
c R    5.8   54694   246903       161     106   8932   702  20  9.2 447.4   26
c R    6.0   54694   246903       406     311   8948   724   8  9.1 291.6   26
c [simplification-2] limit hit at 433 conflicts
c [simplification-2] simplification penalty of 3
c [ternres-2] limit 2000000 with penalty 1 = 1 + 0
c [ternres-2] 13823 schedulable variables 25%
c [ternres-2] 4 ternary resolvents (0 bin, 4 trn)
c [ternres-2] fully completed ternary resolution
c T    6.0   54694   246903       433     325   8953   734   8  8.7 282.1   27
c [gauss-2] limit 2000000 penalty 0 = 0 + 0
c [gauss-2] extracted 1039 xors of average arity 3.0
c [gauss-2] connected 3117 occurrences of 1653 variables (average 1.9)
c [gauss-2] limit 2000000 penalty 0 = 0 + 0
c [gauss-2] fully completed
c [gauss-2] exported 0 unary, 0 binary and 0 ternary equations
c G    6.3   54694   246903       433     325   8953   734   8  8.7 282.1   22
c [basicprobe-2] limit 500000 penalty 1 = 1 + 0
c [basicprobe-2-0] 4726 probes remain 9% after last round
c [basicprobe-2-0] removed 0 variables, found 358 hbrs
c p    6.5   54694   246903       433     325   9311   733   8  8.7 282.1   26
c [cgrclsr-2] limit 100000 penalty 1 = 1 + 0
c [cgrclsr-2] all 54694 free variables schedulable
c [cgrclsr-2] fully completed congruence closure
c [lift-2] limit 500000 with penalty 0 = 0 + 0
c [lift-2] using 54664 probes 100%
c [lift-2] 54634 variables remain 100% (60 retained)
c [cliff-2] limit of 5000000 steps penalty 1 = 1 + 0
c [cliff-2] failed 0, lifted 0
c [unhide-2] limit 1000000 with penalty 0 = 0 + 0
c [unhide-2-2] 0 units, 0 failed, 1034 tauts, 0 hbrs, 169 literals
c u    7.3   54694   246893       433     322   8686   731   8  8.7 282.1   26
c [transred-3] limit 100000 with penalty 0 = 0 + 0
c t    7.3   54694   246892       433     322   8680   731   8  8.7 282.1   26
c [block-2] scheduling all variables this time
c [block-2] scheduled 54694 variables 100%
c [block-2] limit of 10000000 steps penalty 0 = 0 + 0
c [block-2] fully completed blocked clause elimination
c [block-2] transition to [ all 0 rem 0 ] state
c [block-2] eliminated 0 blocked clauses
c [cce-2] 51299 variables 94% will be scheduled this time
c [cce-2] limit of 10000000 steps penalty 0 = 0 + 0
c [cce-2] 50809 variables 93% remain to be tried next time
c [cce-2] transition to [ all 0 rem 1 ] state
c [cce-2] eliminated 343 covered clauses
c E    8.1   54694   246549       433     322   9428   731   8  8.7 282.1   22
c [elim-2] 46179 variables 84% will be scheduled this time
c [elim-2] scheduled 46179 variables 84%
c [elim-2] limit of 5000000 steps penalty 0 = 0 + 0
c [elim-2] 36292 variables 66% remain to be tried next time
c [elim-2] transition to [ all 0 rem 1 ] state
c [elim-2] eliminated 962 = 2% variables out of 54694
c e    9.7   53732   246119       433     294   7498   730   8  8.7 282.1   22
c [phase-2] phase bias: 43 positive 96%, 2 negative 4%
c [simplification-2] removed 962 variables 1%
c [simplification-2] no reduction of limit increments
c [simplification-2] arithmetic increase of conflict limit interval by 10000
c [simplification-2] new irredundant limit 2466201
c [simplification-2] new conflict limit 10766
c [simplification-2] simplification penalty reduced to 2
c R   10.2   53732   246119       978     773   7521   766   5  7.3 231.4   27
c -   10.4   53732   246119      1243     501   7533   788   4  6.8 196.9   26
c R   10.9   53732   246119      2272    1450   7552   848  13  9.1 252.2   27
c 
c  seconds         irredundant          redundant clauses agility   height
c          variables clauses conflicts large binary ternary    glue         MB
c 
c -   12.5   53732   246119      4180    1588   7618  1051   4  7.8 241.6   27
c R   12.8   53732   246119      5179    2581   7619  1055   5  9.4 263.3   27
c -   14.8   53732   246119      8016    2519   7736  1278   5  8.6 257.2   27
c [simplification-3] limit hit at 10767 conflicts
c [simplification-3] simplification penalty of 2
c [ternres-3] limit 4000000 with penalty 0 = 0 + 0
c [ternres-3] all 53732 free variables schedulable
c [ternres-3] 168 ternary resolvents (0 bin, 168 trn)
c [ternres-3] 5121 variables remain 10% (48611 retained)
c T   16.3   53732   246119     10767    5054   7815  1572   5  8.9 260.9   28
c [gauss-3] limit 1000000 penalty 1 = 1 + 0
c [gauss-3] extracted 526 xors of average arity 3.0
c [gauss-3] connected 1578 occurrences of 1127 variables (average 1.4)
c [gauss-3] limit 1000000 penalty 1 = 1 + 0
c [gauss-3] fully completed
c [gauss-3] exported 0 unary, 0 binary and 0 ternary equations
c G   16.5   53732   246119     10767    5054   7815  1572   5  8.9 260.9   22
c [basicprobe-3] limit 266953 penalty 2 = 2 + 0
c [basicprobe-3-0] 4534 probes remain 8% after last round
c [basicprobe-3-0] removed 0 variables, found 474 hbrs
c p   16.7   53732   246119     10767    5054   8289  1563   5  8.9 260.9   27
c [cgrclsr-3] limit 76861 based on 614890 irredundant literals
c [cgrclsr-3] all 53732 free variables schedulable
c [cgrclsr-3] fully completed congruence closure
c [lift-3] limit 320344 with penalty 1 = 1 + 0
c [lift-3] using 53672 probes 100%
c [lift-3] 53655 variables remain 100% (77 retained)
c [cliff-3] limit of 2500000 steps penalty 2 = 2 + 0
c [cliff-3] failed 0, lifted 0
c [unhide-3] limit 1000000 with penalty 0 = 0 + 0
c [unhide-3-3] 0 units, 0 failed, 1091 tauts, 0 hbrs, 3330 literals
c u   17.5   53732   245082     10767    5016   8502  1539   5  8.9 260.9   27
c [transred-5] limit 1067813 with penalty 0 = 0 + 0
c t   17.6   53732   245069     10767    5016   8456  1539   5  8.9 260.9   27
c [block-3] scheduling all variables this time
c [block-3] scheduled 53732 variables 100%
c [block-3] limit of 5000000 steps penalty 1 = 1 + 0
c [block-3] fully completed blocked clause elimination
c [block-3] transition to [ all 0 rem 0 ] state
c [block-3] eliminated 0 blocked clauses
c [cce-3] scheduling all variables this time
c [cce-3] limit of 10000000 steps penalty 0 = 0 + 0
c [cce-3] 49686 variables 92% remain to be tried next time
c [cce-3] transition to [ all 1 rem 1 ] state
c [cce-3] eliminated 243 covered clauses
c E   18.5   53732   244826     10767    5016   9708  1532   5  8.9 260.9   22
c [elim-3] scheduling all variables this time
c [elim-3] scheduled 53732 variables 100%
c [elim-3] limit of 5000000 steps penalty 0 = 0 + 0
c [elim-3] 34292 variables 64% remain to be tried next time
c [elim-3] transition to [ all 1 rem 1 ] state
c [elim-3] eliminated 535 = 1% variables out of 53732
c e   20.1   53197   244415     10767    4943   7815  1525   5  8.9 260.9   22
c [simplification-3] removed 535 variables 0%
c [simplification-3] no reduction of limit increments
c [simplification-3] arithmetic increase of conflict limit interval by 10000
c [simplification-3] new irredundant limit 2466201
c [simplification-3] new conflict limit 31100
c [simplification-3] simplification penalty reduced to 1
c R   20.5   53197   244415     11636    5801   7818  1533   7  9.7 274.6   28
c 1   21.1   53197   244415     12553    6606   7848  1604   5  9.5 270.2   28
c 
c  seconds         irredundant          redundant clauses agility   height
c          variables clauses conflicts large binary ternary    glue         MB
c 
c blkd: 3 bces, 5174 removed, 2196067 resolutions, 6066836 steps
c blkd: 5174 blocking literals 1%, 0 pure
c cces: 3 cces, 682 eliminated, 682 ate 100%, 0 abce 0%
c cces: 20862 probed, 1 lifted, 4 failed
c clff: 3 cliffs, 0 lifted, 0 failed
c clff: 7433 decisions, 17526766 steps
c clls: 1 sat, 0 simp, 0 freeze, 0 melt
c clls: 2335439 add, 0 assume,, 0 deref, 0 failed
c clls: 0 cassume, 0 mosat
c coll: 17 gcs, 0 rescored clauses
c cgrs: 3 count, 376861 esteps, 88340 csteps
c cgrs: 0 eqs, 0 units
c cgrs: 0 matched (0 ands 0%, 0 xors 0%, 0 ites 0%)
c cgrs: 0 simplified (0 ands 0%, 0 xors 0%, 0 ites 0%)
c cgrs: 2365 extracted (2021 ands 85%, 344 xors 15%, 0 ites 0%)
c dcps: 4 decompositions, 72939 equivalent 30%
c decs: 212195 decision, 215 random 0.101%
c decs: 43861 flipped 20.670% (in 79 phases)
c elms: 3 elims, 8600 eliminated 4%
c elms: 8600 small 100%, 0 large 0%
c elms: 37122 tried small, 8600 succeeded 23%, 28522 failed 77%
c elms: 0 subsumed, 0 strengthened, 0 blocked
c elms: 481893 copies, 332896 resolutions, 976928 ipos
c elms: 0 subchks, 0 strchks
c frcs: 0 computed, 23.2 - 76.8 average min-cut range
c gaus: 3 extractions, 169193 extracted, 2.0 size, 3 max
c gaus: exported 0 units, 1 binary and 0 ternary equations
c gaus: 0 gc, 10000180 steps, 5000090 extr 50%, 2482440 elim 25%
c glue: 9.5 avg, 3.0 scaled avg
c glue: 0 maxredglue=15 (0%)
c lift: 3 phases, 492 probed (164 level1 33%, 328 level2 67%)
c lift: 0 units, 1 equivalences, 1 implications
c hbrs: 26495 hbrs = 26495 trn 100% + 0 lrg 0%, 21 sub 0%
c lrnd: 12451 clauses, 7594 uips 61%, 31.8 length, 9.5 glue
c ints: 574 luby (74357 steps), 0 inout (0 steps)
c mins: 396460 learned lits, 6% minimized
c move: moved 5856, 682 binary 12%, 5174 ternary 88%
c otfs: str 625 dyn (556 red, 69 irr) 102 drv 16%, 523 rst 84%
c otfs: sub 1 dyn (1 red, 0 irr)
c phas: 2 computed, 12318 set, 1639 pos (13%), 10679 neg (87%)
c prbs: 3 basic, 2364 probed, 0 failed, 0 lifted
c prps: 31416818 props, 113 props/dec
c prps: 76% srch, 24% simp, 0% lkhd
c psns: 1704592 searches, 221902 hits, 13% hit rate
c queu: 50229 new, 19159 del, 120 maximum priority
c queu: 31053 merged, 25843 collected, 5 gcs
c queu: 13076 deprioritized, 24.5 lines on average
c reds: 3 count, 0 reset, 3 acts 100%, 0 exp 0%
c reds: 3 arithmetic 100%, 3 double 100%
c rmbd: 10 removed, 0 red 0%
c rsts: 538 restarts 94%, 35 skipped 6%
c rsts: 76 kept 14.1% average 38.0%
c simp: 3 count (0 ilim 0%, 0 plim 0%, 3 clim 100%)
c trnr: 3 count, 0 bin, 172 trn, 9067402 steps
c tops: 110514 fixed 45%, 0 iterations
c trds: 6 transitive reductions, 70 removed, 0 failed
c trds: 1281 nodes, 1819 edges, 1271506 steps
c unhd: 3 count, 3 rounds, 3904948 steps
c unhd: 0 non-trivial sccs of average size 0.0
c unhd: 0 units, 0 bin, 0 trn, 0 lrg
c unhd: 5 failed, 5 stamp, 0 lits, 0 bin, 0 trn, 0 lrg
c unhd: 24185 tauts, 1 bin 0%, 526 trn 2%, 27 lrg 0%
c unhd: 24185 tauts, 23631 stamp 98%, 1088 red 4%
c unhd: 0 hbrs, 0 trn 0%, 0 lrg 0%, 0 red 0%
c unhd: 3577 strd, 0 bin 0%, 5 trn 0%, 3572 lrg 100%, 3576 red 100%
c vars: 53197 remaining 22% and 192053 removed 78% out of 245250
c vars: 110514 fixed 45%, 8600 eliminated 4%, 72939 equivalent 30%
c vsts: 154672746 visits, 78% srch, 22% simp, 0% lkhd
c vsts: 5.0 search visits per propagation 9572.2 per conflict
c wchs: 14826992 pushed, 5949397 enlarged, 30 defrags
c 
c scaledglue  added       reduced       forcing      resolved     conflicts
c 
c all     11312 100      4496 100     91223 100     27556 100      2660 100
c 
c  0          0   0         0   0         0   0         0   0         0   0 
c  1         84   1        31   1      1102   1       186   1         6   0 
c  2       3201  28      1384  31     32252  35      6966  25       532  20 
c  3       3924  35<     1405  31<    41248  45<    10764  39<     1141  43<
c  4       2459  22       980  22     13075  14      6148  22       682  26 
c  5        893   8       370   8      2192   2      1956   7       178   7 
c  6        397   4       177   4       736   1       817   3        74   3 
c  7        194   2        80   2       383   0       412   1        25   1 
c  8         96   1        33   1       148   0       187   1        11   0 
c  9         53   0        31   1        71   0       100   0         9   0 
c 10          5   0         4   0         5   0         7   0         1   0 
c 11          0   0         0   0         0   0         0   0         0   0 
c 12          6   0         1   0        11   0        13   0         1   0 
c 13          0   0         0   0         0   0         0   0         0   0 
c 14          0   0         0   0         0   0         0   0         0   0 
c 15          0   0         0   0         0   0         0   0         0   0 
c 
c avg             3.3           3.3           2.9           3.3           3.4
c std             1.3           1.4           0.9           1.2           1.1
c 
c 212195 decisions, 12553 conflicts, 594.1 conflicts/sec
c 31416818 propagations, 1.5 megaprops/sec
c 21.1 seconds, 50.1 MB
c 
c    1.172   6% analysis
c    0.816   4% block
c    0.088   0% bump
c    0.000   0% card
c    2.048  10% cce
c    1.024   5% cliff
c    0.028   0% cutwidth
c    0.352   2% decide
c    0.000   0% force
c    1.400   7% gc
c    0.536   3% cgrclsr
c    0.772   4% decomp
c    0.368   2% defrag
c    4.812  23% elim
c    1.768   8% gauss
c    0.524   2% lift
c    0.176   1% mincls
c    0.088   0% phase
c    0.204   1% probe
c    0.020   0% reduce
c    0.592   3% restart
c    0.252   1% ternres
c    0.144   1% transred
c    0.580   3% unhide
c ==================================
c    0.040   0% preprocessing     0%
c   13.545  64% inprocessing    100%
c ==================================
c   13.585  64% simplifying
c    0.000   0% lookahead
c    7.528  36% search
c ==================================
c   21.129 100% all
c
s SATISFIABLE
